;(set-option :produce-unsat-cores true )
(set-logic ALL_SUPPORTED )
(declare-sort A$ 0 )
(declare-sort Nat$ 0 )
(declare-sort A_tree_set$ 0 )
(declare-sort A_tree$ 0)
(declare-sort Num$ 0)
(declare-fun leaf$ ()A_tree$)
(declare-fun left$ (A_tree$)A_tree$)
(declare-fun val$ (A_tree$)A$)
(declare-fun right$ (A_tree$)A_tree$)
(declare-fun node$ (A_tree$ A$ A_tree$ )A_tree$)
(declare-fun one$ ()Num$)
(declare-fun select$ (Num$)Num$)
(declare-fun bit0$ (Num$ )Num$)
(declare-fun selecta$ (Num$)Num$)
(declare-fun bit1$ (Num$ )Num$)
(declare-fun a$ (A$ A_tree$ )Real )
(declare-fun b$ ()A$ )
(declare-fun c$ ()A$ )
(declare-fun l$ ()A_tree$ )
(declare-fun r$ ()A_tree$ )
(declare-fun aa$ ()A$ )
(declare-fun la$ ()A_tree$ )
(declare-fun ra$ ()A_tree$ )
(declare-fun bst$ (A_tree$ )Bool )
(declare-fun log$ (Real Real )Real )
(declare-fun less$ (A$ A$ )Bool )
(declare-fun plus$ (Num$ Num$ )Num$ )
(declare-fun real$ (Nat$ )Real )
(declare-fun size1$ (A_tree$ )Nat$ )
(declare-fun times$ (Real Real )Real )
(declare-fun member$ (A_tree$ A_tree_set$ )Bool )
(declare-fun less_eq$ (Num$ Num$ )Bool )
(declare-fun numeral$ (Num$ )Real )
(declare-fun subtrees$ (A_tree$ )A_tree_set$ )
(assert (! (not (<= (a$ aa$ (node$ l$ c$ r$ ))(+ (* 3.0 (- (log$ 2.0 (real$ (size1$ (node$ l$ c$ r$ ))))(log$ 2.0 (real$ (size1$ (node$ la$ aa$ ra$ ))))))1.0 ))):named a0 ))
(assert (! (not (= aa$ c$ )):named a1 ))
(assert (! (=> (forall ((?v0 A_tree$ )(?v1 A$ )(?v2 A_tree$ ))(=> (= l$ (node$ ?v0 ?v1 ?v2 ))false ))false ):named a2 ))
(assert (! (<= (a$ aa$ (node$ l$ c$ r$ ))(+ (- (* 3.0 (log$ 2.0 (real$ (size1$ (node$ l$ c$ r$ )))))(* 3.0 (log$ 2.0 (real$ (size1$ (node$ la$ aa$ ra$ ))))))1.0 )):named a3 ))
(assert (! (less$ aa$ c$ ):named a4 ))
(assert (! (forall ((?v0 A$ )(?v1 A_tree$ )(?v2 A_tree$ ))(! (= (a$ ?v0 (node$ ?v1 ?v0 ?v2 ))1.0 ):pattern ((node$ ?v1 ?v0 ?v2 )))):named a5 ))
(assert (! (member$ (node$ la$ aa$ ra$ )(subtrees$ (node$ l$ c$ r$ ))):named a6 ))
(assert (! (not (= aa$ b$ )):named a7 ))
(assert (! (bst$ (node$ l$ c$ r$ )):named a8 ))
(assert (! (= (+ 1.0 1.0 )2.0 ):named a9 ))
(assert (! (forall ((?v0 Num$ ))(= (+ (numeral$ ?v0 )1.0 )(numeral$ (plus$ ?v0 one$ )))):named a10 ))
(assert (! (forall ((?v0 Num$ ))(= (+ 1.0 (numeral$ ?v0 ))(numeral$ (plus$ one$ ?v0 )))):named a11 ))
(assert (! (forall ((?v0 Num$ ))(= (<= (numeral$ ?v0 )1.0 )(less_eq$ ?v0 one$ ))):named a12 ))
(assert (! (forall ((?v0 Num$ ))(= (= (numeral$ ?v0 )1.0 )(= ?v0 one$ ))):named a13 ))
(assert (! (forall ((?v0 Num$ ))(= (= 1.0 (numeral$ ?v0 ))(= one$ ?v0 ))):named a14 ))
(assert (! (forall ((?v0 Real )(?v1 Real )(?v2 Num$ ))(= (times$ (- ?v0 ?v1 )(numeral$ ?v2 ))(- (times$ ?v0 (numeral$ ?v2 ))(times$ ?v1 (numeral$ ?v2 ))))):named a15 ))
(assert (! (forall ((?v0 Num$ )(?v1 Real )(?v2 Real ))(= (times$ (numeral$ ?v0 )(- ?v1 ?v2 ))(- (times$ (numeral$ ?v0 )?v1 )(times$ (numeral$ ?v0 )?v2 )))):named a16 ))
(assert (! (forall ((?v0 Real )(?v1 Real )(?v2 Num$ ))(= (times$ (+ ?v0 ?v1 )(numeral$ ?v2 ))(+ (times$ ?v0 (numeral$ ?v2 ))(times$ ?v1 (numeral$ ?v2 ))))):named a17 ))
(check-sat )
;(get-unsat-core )
